100
1000
200
200
200
200
199
199
198
198
197
196
195
193
193
193
192
191
191
191
190
189
188
188
188
187
186
186
186
186
186
186
186
185
185
185
185
184
184
184
181
180
180
179
179
179
178
177
177
177
176
176
176
175
175
174
174
173
172
171
171
171
171
171
171
169
169
168
168
168
168
167
167
166
166
166
166
164
162
161
160
160
160
160
159
159
158
158
157
157
157
157
157
156
156
156
155
154
154
154
150
150
